SYSTEM = O1
ISTART = 0
ISPIN = 2
ICHARG = 2
LCHARG = .FALSE.
LWAVE = .FALSE.
ENCUT = 520
EDIFF = 1E-4
LREAL = .FALSE.
IALGO = 48
NSW = 0
NELM = 300
IBRION = -1
ISIF = 2
ISMEAR = 0
SIGMA = 0.05
ISYM = 0
LORBIT = 11
NCORE = 4
KPAR = 2
