
1.0
       15.0000000000         0.0000000000         0.0000000000
       -7.5000000000        12.9903810568         0.0000000000
        0.0000000000         0.0000000000         6.4000000954
   Mn   Li   Na    O
   18    9   27   54
Direct
     0.000000000         0.000000000         0.210940003
     0.111110002         0.222220004         0.210940003
     0.222220004         0.111110002         0.210940003
     0.000000000         0.333330005         0.210940003
     0.111110002         0.555559993         0.210940003
     0.222220004         0.444440007         0.210940003
     0.000000000         0.666670024         0.210940003
     0.111110002         0.888890028         0.210940003
     0.222220004         0.777779996         0.210940003
     0.333330005         0.000000000         0.210940003
     0.444440007         0.222220004         0.210940003
     0.555559993         0.444440007         0.210940003
     0.333330005         0.666670024         0.210940003
     0.555559993         0.777779996         0.210940003
     0.666670024         0.000000000         0.210940003
     0.888890028         0.444440007         0.210940003
     0.777779996         0.888890028         0.210940003
     0.888890028         0.777779996         0.210940003
     0.555559993         0.111110002         0.210940003
     0.333330005         0.333330005         0.210940003
     0.444440007         0.555559993         0.210940003
     0.444440007         0.888890028         0.210940003
     0.777779996         0.222220004         0.210940003
     0.888890028         0.111110002         0.210940003
     0.666670024         0.333330005         0.210940003
     0.777779996         0.555559993         0.210940003
     0.666670024         0.666670024         0.210940003
     0.000000000         0.000000000         0.710940003
     0.111110002         0.222220004         0.710940003
     0.222220004         0.111110002         0.710940003
     0.000000000         0.333330005         0.710940003
     0.111110002         0.555559993         0.710940003
     0.222220004         0.444440007         0.710940003
     0.000000000         0.666670024         0.710940003
     0.111110002         0.888890028         0.710940003
     0.222220004         0.777779996         0.710940003
     0.333330005         0.000000000         0.710940003
     0.444440007         0.222220004         0.710940003
     0.555559993         0.111110002         0.710940003
     0.333330005         0.333330005         0.710940003
     0.444440007         0.555559993         0.710940003
     0.555559993         0.444440007         0.710940003
     0.333330005         0.666670024         0.710940003
     0.444440007         0.888890028         0.710940003
     0.555559993         0.777779996         0.710940003
     0.666670024         0.000000000         0.710940003
     0.777779996         0.222220004         0.710940003
     0.888890028         0.111110002         0.710940003
     0.666670024         0.333330005         0.710940003
     0.777779996         0.555559993         0.710940003
     0.888890028         0.444440007         0.710940003
     0.666670024         0.666670024         0.710940003
     0.777779996         0.888890028         0.710940003
     0.888890028         0.777779996         0.710940003
     0.000000000         0.111110002         0.000000000
     0.222220004         0.222220004         0.000000000
     0.111110002         0.000000000         0.000000000
     0.111110002         0.111110002         0.421880007
     0.333330005         0.222220004         0.421880007
     0.222220004         0.000000000         0.421880007
     0.000000000         0.444440007         0.000000000
     0.222220004         0.555559993         0.000000000
     0.111110002         0.333330005         0.000000000
     0.111110002         0.444440007         0.421880007
     0.333330005         0.555559993         0.421880007
     0.222220004         0.333330005         0.421880007
     0.000000000         0.777779996         0.000000000
     0.222220004         0.888890028         0.000000000
     0.111110002         0.666670024         0.000000000
     0.111110002         0.777779996         0.421880007
     0.333330005         0.888890028         0.421880007
     0.222220004         0.666670024         0.421880007
     0.333330005         0.111110002         0.000000000
     0.555559993         0.222220004         0.000000000
     0.444440007         0.000000000         0.000000000
     0.444440007         0.111110002         0.421880007
     0.666670024         0.222220004         0.421880007
     0.555559993         0.000000000         0.421880007
     0.333330005         0.444440007         0.000000000
     0.555559993         0.555559993         0.000000000
     0.444440007         0.333330005         0.000000000
     0.444440007         0.444440007         0.421880007
     0.666670024         0.555559993         0.421880007
     0.555559993         0.333330005         0.421880007
     0.333330005         0.777779996         0.000000000
     0.555559993         0.888890028         0.000000000
     0.444440007         0.666670024         0.000000000
     0.444440007         0.777779996         0.421880007
     0.666670024         0.888890028         0.421880007
     0.555559993         0.666670024         0.421880007
     0.666670024         0.111110002         0.000000000
     0.888890028         0.222220004         0.000000000
     0.777779996         0.000000000         0.000000000
     0.777779996         0.111110002         0.421880007
     0.000000000         0.222220004         0.421880007
     0.888890028         0.000000000         0.421880007
     0.666670024         0.444440007         0.000000000
     0.888890028         0.555559993         0.000000000
     0.777779996         0.333330005         0.000000000
     0.777779996         0.444440007         0.421880007
     0.000000000         0.555559993         0.421880007
     0.888890028         0.333330005         0.421880007
     0.666670024         0.777779996         0.000000000
     0.888890028         0.888890028         0.000000000
     0.777779996         0.666670024         0.000000000
     0.777779996         0.777779996         0.421880007
     0.000000000         0.888890028         0.421880007
     0.888890028         0.666670024         0.421880007
